N = 12;
H = 5;
T = 2;

avail = array3d(1..N, 1..H, 1..T, [0, 0, 0, 5, 10, 6, 7, 10, 3, 3, 2, 8, 1, 8, 1, 5, 6, 1, 5, 9, 3, 5, 9, 2, 5, 8, 3, 5, 4, 0, 9, 7, 5, 3, 9, 5, 8, 9, 7, 5, 7, 4, 6, 7, 10, 5, 4, 9, 0, 3, 6, 4, 6, 7, 4, 10, 0, 4, 8, 8, 9, 10, 2, 9, 6, 7, 1, 2, 2, 4, 1, 7, 9, 3, 1, 3, 10, 2, 6, 5, 10, 4, 8, 1, 7, 9, 9, 0, 3, 7, 7, 3, 3, 9, 6, 1, 3, 3, 6, 10, 8, 3, 3, 3, 1, 5, 4, 6, 0, 6, 5, 2, 0, 1, 4, 6, 3, 0, 7, 8]);

r = array2d(1..H, 1..T, [2, 2, 4, 3, 2, 4, 1, 2, 3, 0]);
